\* Class_Selection *\
Maximize
OBJ: __dummy
Subject To
MaximumUnits: 2 x_0 + 4 x_1 + 3 x_10 + 4 x_11 + 3 x_12 + 2 x_13 + 3 x_14
 + 2 x_15 + 3 x_16 + 3 x_17 + 2 x_18 + 3 x_19 + 3 x_2 + 2 x_20 + 3 x_21
 + 3 x_22 + 4 x_23 + 3 x_24 + 2 x_25 + 3 x_26 + 2 x_27 + 3 x_28 + 4 x_29
 + 3 x_3 + 3 x_30 + 2 x_31 + 3 x_32 + 2 x_33 + 3 x_34 + 2 x_35 + 3 x_36
 + 3 x_37 + 3 x_38 + 3 x_39 + 4 x_4 + 2 x_5 + 2 x_6 + 3 x_7 + 3 x_8 + 2 x_9
 <= 10
MinimumUnits: 2 x_0 + 4 x_1 + 3 x_10 + 4 x_11 + 3 x_12 + 2 x_13 + 3 x_14
 + 2 x_15 + 3 x_16 + 3 x_17 + 2 x_18 + 3 x_19 + 3 x_2 + 2 x_20 + 3 x_21
 + 3 x_22 + 4 x_23 + 3 x_24 + 2 x_25 + 3 x_26 + 2 x_27 + 3 x_28 + 4 x_29
 + 3 x_3 + 3 x_30 + 2 x_31 + 3 x_32 + 2 x_33 + 3 x_34 + 2 x_35 + 3 x_36
 + 3 x_37 + 3 x_38 + 3 x_39 + 4 x_4 + 2 x_5 + 2 x_6 + 3 x_7 + 3 x_8 + 2 x_9
 >= 2
_C1: x_0 = 0
_C10: x_1 + x_12 <= 1
_C100: x_19 + x_34 <= 1
_C101: x_19 + x_38 <= 1
_C102: x_21 + x_31 <= 1
_C103: x_22 + x_31 <= 1
_C104: x_23 + x_38 <= 1
_C105: x_23 + x_24 <= 1
_C106: x_23 + x_34 <= 1
_C107: x_23 + x_38 <= 1
_C108: x_24 + x_34 <= 1
_C109: x_24 + x_38 <= 1
_C11: x_1 + x_12 <= 1
_C110: x_25 + x_36 <= 1
_C111: x_25 + x_39 <= 1
_C112: x_26 + x_36 <= 1
_C113: x_26 + x_35 <= 1
_C114: x_27 + x_32 <= 1
_C115: x_27 + x_39 <= 1
_C116: x_27 + x_37 <= 1
_C117: x_28 + x_33 <= 1
_C118: x_29 + x_33 <= 1
_C119: x_29 + x_30 <= 1
_C12: x_1 + x_16 <= 1
_C120: x_29 + x_32 <= 1
_C121: x_30 + x_32 <= 1
_C122: x_32 + x_39 <= 1
_C123: x_34 + x_38 <= 1
_C124: x_36 + x_39 <= 1
_C125: x_2 = 1
_C13: x_1 + x_26 <= 1
_C14: x_1 + x_35 <= 1
_C15: x_2 + x_28 <= 1
_C16: x_2 + x_9 <= 1
_C17: x_17 + x_2 <= 1
_C18: x_2 + x_25 <= 1
_C19: x_2 + x_36 <= 1
_C2: x_0 + x_18 <= 1
_C20: x_2 + x_39 <= 1
_C21: x_15 + x_3 <= 1
_C22: x_3 + x_35 <= 1
_C23: x_18 + x_3 <= 1
_C24: x_19 + x_3 <= 1
_C25: x_23 + x_3 <= 1
_C26: x_24 + x_3 <= 1
_C27: x_3 + x_34 <= 1
_C28: x_3 + x_38 <= 1
_C29: x_16 + x_4 <= 1
_C3: x_0 + x_27 <= 1
_C30: x_26 + x_4 <= 1
_C31: x_36 + x_4 <= 1
_C32: x_4 + x_6 <= 1
_C33: x_10 + x_4 <= 1
_C34: x_22 + x_4 <= 1
_C35: x_10 + x_5 <= 1
_C36: x_37 + x_5 <= 1
_C37: x_29 + x_5 <= 1
_C38: x_30 + x_5 <= 1
_C39: x_32 + x_5 <= 1
_C4: x_0 + x_32 <= 1
_C40: x_24 + x_6 <= 1
_C41: x_10 + x_6 <= 1
_C42: x_22 + x_6 <= 1
_C43: x_11 + x_7 <= 1
_C44: x_14 + x_7 <= 1
_C45: x_29 + x_7 <= 1
_C46: x_33 + x_7 <= 1
_C47: x_7 + x_8 <= 1
_C48: x_15 + x_7 <= 1
_C49: x_27 + x_7 <= 1
_C5: x_0 + x_39 <= 1
_C50: x_37 + x_7 <= 1
_C51: x_13 + x_8 <= 1
_C52: x_23 + x_8 <= 1
_C53: x_38 + x_8 <= 1
_C54: x_15 + x_8 <= 1
_C55: x_27 + x_8 <= 1
_C56: x_37 + x_8 <= 1
_C57: x_22 + x_9 <= 1
_C58: x_31 + x_9 <= 1
_C59: x_17 + x_9 <= 1
_C6: x_0 + x_5 <= 1
_C60: x_25 + x_9 <= 1
_C61: x_36 + x_9 <= 1
_C62: x_39 + x_9 <= 1
_C63: x_10 + x_37 <= 1
_C64: x_10 + x_22 <= 1
_C65: x_11 + x_14 <= 1
_C66: x_11 + x_29 <= 1
_C67: x_11 + x_33 <= 1
_C68: x_11 + x_14 <= 1
_C69: x_12 + x_16 <= 1
_C7: x_0 + x_29 <= 1
_C70: x_12 + x_26 <= 1
_C71: x_12 + x_35 <= 1
_C72: x_13 + x_19 <= 1
_C73: x_13 + x_34 <= 1
_C74: x_13 + x_23 <= 1
_C75: x_13 + x_38 <= 1
_C76: x_14 + x_29 <= 1
_C77: x_14 + x_33 <= 1
_C78: x_15 + x_35 <= 1
_C79: x_15 + x_27 <= 1
_C8: x_0 + x_30 <= 1
_C80: x_15 + x_37 <= 1
_C81: x_16 + x_26 <= 1
_C82: x_16 + x_36 <= 1
_C83: x_16 + x_26 <= 1
_C84: x_16 + x_35 <= 1
_C85: x_17 + x_25 <= 1
_C86: x_17 + x_25 <= 1
_C87: x_17 + x_36 <= 1
_C88: x_17 + x_39 <= 1
_C89: x_18 + x_27 <= 1
_C9: x_0 + x_32 <= 1
_C90: x_18 + x_32 <= 1
_C91: x_18 + x_39 <= 1
_C92: x_18 + x_19 <= 1
_C93: x_18 + x_23 <= 1
_C94: x_18 + x_24 <= 1
_C95: x_18 + x_34 <= 1
_C96: x_18 + x_38 <= 1
_C97: x_19 + x_34 <= 1
_C98: x_19 + x_23 <= 1
_C99: x_19 + x_24 <= 1
Bounds
 __dummy = 0
Binaries
x_0
x_1
x_10
x_11
x_12
x_13
x_14
x_15
x_16
x_17
x_18
x_19
x_2
x_20
x_21
x_22
x_23
x_24
x_25
x_26
x_27
x_28
x_29
x_3
x_30
x_31
x_32
x_33
x_34
x_35
x_36
x_37
x_38
x_39
x_4
x_5
x_6
x_7
x_8
x_9
End
